NAME : in_house_9_5
TYPE : TSP
DIMENSION : 9
EDGE_WEIGHT_TYPE : EXPLICIT
EDGE_WEIGHT_FORMAT : UPPER_ROW
COMMENT : INVERSION_SHIFT=1
EDGE_WEIGHT_SECTION
2
3
33
39
70
53
24
6
64
65
71
69
16
76
76
66
44
69
66
32
71
19
62
71
53
29
5
77
69
73
54
16
34
78
35
66
